words_hard_train/1225.qaiger
aag 134 16 0 1 118
2
4
8
12
16
20
24
28
94
102
106
122
138
158
174
190
269
6 3 5
10 6 9
14 10 13
18 14 17
22 18 21
26 22 25
30 26 29
32 23 29
34 33 25
36 32 24
38 35 37
40 19 29
42 41 21
44 40 20
46 43 45
48 15 28
50 49 17
52 48 16
54 51 53
56 11 29
58 57 13
60 56 12
62 59 61
64 7 29
66 65 8
68 64 9
70 67 69
72 2 28
74 72 5
76 73 4
78 75 77
80 78 2
82 71 80
84 62 82
86 55 84
88 46 86
90 38 88
92 31 91
96 93 94
98 92 95
100 97 99
104 102 3
108 78 107
110 79 106
112 109 111
114 104 112
116 115 111
118 70 81
120 119 83
124 121 123
126 120 122
128 125 127
130 117 128
132 131 127
134 63 83
136 135 85
140 137 139
142 136 138
144 141 143
146 133 144
148 147 143
150 15 85
152 151 54
154 150 55
156 153 155
160 156 159
162 157 158
164 161 163
166 149 164
168 167 163
170 47 87
172 171 89
176 173 175
178 172 174
180 177 179
182 169 180
184 183 179
186 39 89
188 187 91
192 189 191
194 188 190
196 193 195
198 185 196
200 199 195
202 101 201
204 100 200
206 203 205
208 184 197
210 209 199
212 148 165
214 213 167
216 103 2
218 216 113
220 219 115
222 116 129
224 223 131
226 221 225
228 132 145
230 229 147
232 226 231
234 215 232
236 168 181
238 237 183
240 234 239
242 211 240
244 207 243
246 227 230
248 247 233
250 248 215
252 250 225
254 252 113
256 254 211
258 217 105
260 235 238
262 258 261
264 262 241
266 256 264
268 244 267
i0 2 y2[0]
i1 2 y2[1]
i2 2 y2[2]
i3 2 y2[3]
i4 2 y2[4]
i5 2 y2[5]
i6 2 y2[6]
i7 2 y2[7]
i8 1 x2[7]
i9 1 x2[0]
i10 1 x2[1]
i11 1 x2[2]
i12 1 x2[3]
i13 1 x2[4]
i14 1 x2[5]
i15 1 x2[6]
o0 bv[0]
c
simplified
  <=
    add
      1 x2
      subtract
        1
        abs
          2 y2
    1
