words_hard_train/1225.qaiger.qdimacs
p cnf 134 355
a 69 47 79 51 53 87 61 95 0
e 1 2 3 4 5 6 7 8 9 10 11 12 13 14 15 16 17 18 19 20 21 22 23 24 25 26 27 28 29 30 31 32 33 34 35 36 37 38 39 40 41 42 43 44 45 46 48 49 50 52 54 55 56 57 58 59 60 62 63 64 65 66 67 68 70 71 72 73 74 75 76 77 78 80 81 82 83 84 85 86 88 89 90 91 92 93 94 96 97 98 99 100 101 102 103 104 105 106 107 108 109 110 111 112 113 114 115 116 117 118 119 120 121 122 123 124 125 126 127 128 129 130 131 132 133 134 0
1 2 3 0
-1 -3 0
-2 -3 0
-3 4 5 0
3 -5 0
-4 -5 0
-5 6 7 0
5 -7 0
-6 -7 0
-7 8 9 0
7 -9 0
-8 -9 0
-9 10 11 0
9 -11 0
-10 -11 0
-11 12 13 0
11 -13 0
-12 -13 0
-13 14 15 0
13 -15 0
-14 -15 0
11 14 16 0
-11 -16 0
-14 -16 0
16 12 17 0
-16 -17 0
-12 -17 0
-16 -12 18 0
16 -18 0
12 -18 0
17 18 19 0
-17 -19 0
-18 -19 0
9 14 20 0
-9 -20 0
-14 -20 0
20 10 21 0
-20 -21 0
-10 -21 0
-20 -10 22 0
20 -22 0
10 -22 0
21 22 23 0
-21 -23 0
-22 -23 0
7 -14 24 0
-7 -24 0
14 -24 0
24 8 25 0
-24 -25 0
-8 -25 0
-24 -8 26 0
24 -26 0
8 -26 0
25 26 27 0
-25 -27 0
-26 -27 0
5 14 28 0
-5 -28 0
-14 -28 0
28 6 29 0
-28 -29 0
-6 -29 0
-28 -6 30 0
28 -30 0
6 -30 0
29 30 31 0
-29 -31 0
-30 -31 0
3 14 32 0
-3 -32 0
-14 -32 0
32 -4 33 0
-32 -33 0
4 -33 0
-32 4 34 0
32 -34 0
-4 -34 0
33 34 35 0
-33 -35 0
-34 -35 0
-1 -14 36 0
1 -36 0
14 -36 0
-36 2 37 0
36 -37 0
-2 -37 0
36 -2 38 0
-36 -38 0
2 -38 0
37 38 39 0
-37 -39 0
-38 -39 0
-39 -1 40 0
39 -40 0
1 -40 0
35 -40 41 0
-35 -41 0
40 -41 0
-31 -41 42 0
31 -42 0
41 -42 0
27 -42 43 0
-27 -43 0
42 -43 0
-23 -43 44 0
23 -44 0
43 -44 0
-19 -44 45 0
19 -45 0
44 -45 0
15 45 46 0
-15 -46 0
-45 -46 0
46 -47 48 0
-46 -48 0
47 -48 0
-46 47 49 0
46 -49 0
-47 -49 0
48 49 50 0
-48 -50 0
-49 -50 0
-51 1 52 0
51 -52 0
-1 -52 0
-39 53 54 0
39 -54 0
-53 -54 0
39 -53 55 0
-39 -55 0
53 -55 0
54 55 56 0
-54 -56 0
-55 -56 0
-52 -56 57 0
52 -57 0
56 -57 0
57 55 58 0
-57 -58 0
-55 -58 0
-35 40 59 0
35 -59 0
-40 -59 0
59 41 60 0
-59 -60 0
-41 -60 0
60 61 62 0
-60 -62 0
-61 -62 0
-60 -61 63 0
60 -63 0
61 -63 0
62 63 64 0
-62 -64 0
-63 -64 0
58 -64 65 0
-58 -65 0
64 -65 0
65 63 66 0
-65 -66 0
-63 -66 0
31 41 67 0
-31 -67 0
-41 -67 0
67 42 68 0
-67 -68 0
-42 -68 0
68 69 70 0
-68 -70 0
-69 -70 0
-68 -69 71 0
68 -71 0
69 -71 0
70 71 72 0
-70 -72 0
-71 -72 0
66 -72 73 0
-66 -73 0
72 -73 0
73 71 74 0
-73 -74 0
-71 -74 0
7 42 75 0
-7 -75 0
-42 -75 0
75 -27 76 0
-75 -76 0
27 -76 0
-75 27 77 0
75 -77 0
-27 -77 0
76 77 78 0
-76 -78 0
-77 -78 0
-78 79 80 0
78 -80 0
-79 -80 0
78 -79 81 0
-78 -81 0
79 -81 0
80 81 82 0
-80 -82 0
-81 -82 0
74 -82 83 0
-74 -83 0
82 -83 0
83 81 84 0
-83 -84 0
-81 -84 0
23 43 85 0
-23 -85 0
-43 -85 0
85 44 86 0
-85 -86 0
-44 -86 0
86 87 88 0
-86 -88 0
-87 -88 0
-86 -87 89 0
86 -89 0
87 -89 0
88 89 90 0
-88 -90 0
-89 -90 0
84 -90 91 0
-84 -91 0
90 -91 0
91 89 92 0
-91 -92 0
-89 -92 0
19 44 93 0
-19 -93 0
-44 -93 0
93 45 94 0
-93 -94 0
-45 -94 0
94 95 96 0
-94 -96 0
-95 -96 0
-94 -95 97 0
94 -97 0
95 -97 0
96 97 98 0
-96 -98 0
-97 -98 0
92 -98 99 0
-92 -99 0
98 -99 0
99 97 100 0
-99 -100 0
-97 -100 0
50 100 101 0
-50 -101 0
-100 -101 0
-50 -100 102 0
50 -102 0
100 -102 0
101 102 103 0
-101 -103 0
-102 -103 0
-92 98 104 0
92 -104 0
-98 -104 0
104 99 105 0
-104 -105 0
-99 -105 0
-74 82 106 0
74 -106 0
-82 -106 0
106 83 107 0
-106 -107 0
-83 -107 0
51 -1 108 0
-51 -108 0
1 -108 0
-108 56 109 0
108 -109 0
-56 -109 0
109 57 110 0
-109 -110 0
-57 -110 0
-58 64 111 0
58 -111 0
-64 -111 0
111 65 112 0
-111 -112 0
-65 -112 0
110 112 113 0
-110 -113 0
-112 -113 0
-66 72 114 0
66 -114 0
-72 -114 0
114 73 115 0
-114 -115 0
-73 -115 0
-113 115 116 0
113 -116 0
-115 -116 0
107 -116 117 0
-107 -117 0
116 -117 0
-84 90 118 0
84 -118 0
-90 -118 0
118 91 119 0
-118 -119 0
-91 -119 0
-117 119 120 0
117 -120 0
-119 -120 0
105 -120 121 0
-105 -121 0
120 -121 0
103 121 122 0
-103 -122 0
-121 -122 0
113 -115 123 0
-113 -123 0
115 -123 0
123 116 124 0
-123 -124 0
-116 -124 0
-124 107 125 0
124 -125 0
-107 -125 0
-125 112 126 0
125 -126 0
-112 -126 0
-126 56 127 0
126 -127 0
-56 -127 0
-127 105 128 0
127 -128 0
-105 -128 0
108 52 129 0
-108 -129 0
-52 -129 0
117 -119 130 0
-117 -130 0
119 -130 0
-129 130 131 0
129 -131 0
-130 -131 0
-131 120 132 0
131 -132 0
-120 -132 0
-128 -132 133 0
128 -133 0
132 -133 0
-122 133 134 0
122 -134 0
-133 -134 0
-134 0
